(set-logic QF_NRA)
(set-info :source |
From termination analysis of term rewriting.

Submitted by Harald Roman Zankl <Harald.Zankl@uibk.ac.at>

|)
(set-info :smt-lib-version 2.0)
(set-info :category "industrial")
(set-info :status sat)
(declare-fun x6 () Real)
(declare-fun x23 () Real)
(declare-fun x40 () Real)
(declare-fun x13 () Real)
(declare-fun x30 () Real)
(declare-fun x3 () Real)
(declare-fun x20 () Real)
(declare-fun x37 () Real)
(declare-fun x10 () Real)
(declare-fun x27 () Real)
(declare-fun x44 () Real)
(declare-fun x0 () Real)
(declare-fun x17 () Real)
(declare-fun x34 () Real)
(declare-fun x7 () Real)
(declare-fun x24 () Real)
(declare-fun x41 () Real)
(declare-fun x14 () Real)
(declare-fun x31 () Real)
(declare-fun x4 () Real)
(declare-fun x21 () Real)
(declare-fun x38 () Real)
(declare-fun x11 () Real)
(declare-fun x28 () Real)
(declare-fun x45 () Real)
(declare-fun x1 () Real)
(declare-fun x18 () Real)
(declare-fun x35 () Real)
(declare-fun x8 () Real)
(declare-fun x25 () Real)
(declare-fun x42 () Real)
(declare-fun x15 () Real)
(declare-fun x32 () Real)
(declare-fun x5 () Real)
(declare-fun x22 () Real)
(declare-fun x39 () Real)
(declare-fun x12 () Real)
(declare-fun x29 () Real)
(declare-fun x46 () Real)
(declare-fun x2 () Real)
(declare-fun x19 () Real)
(declare-fun x36 () Real)
(declare-fun x9 () Real)
(declare-fun x26 () Real)
(declare-fun x43 () Real)
(declare-fun x16 () Real)
(declare-fun x33 () Real)
(assert (>= x6 0))
(assert (>= x23 0))
(assert (>= x40 0))
(assert (>= x13 0))
(assert (>= x30 0))
(assert (>= x3 0))
(assert (>= x20 0))
(assert (>= x37 0))
(assert (>= x10 0))
(assert (>= x27 0))
(assert (>= x44 0))
(assert (>= x0 0))
(assert (>= x17 0))
(assert (>= x34 0))
(assert (>= x7 0))
(assert (>= x24 0))
(assert (>= x41 0))
(assert (>= x14 0))
(assert (>= x31 0))
(assert (>= x4 0))
(assert (>= x21 0))
(assert (>= x38 0))
(assert (>= x11 0))
(assert (>= x28 0))
(assert (>= x45 0))
(assert (>= x1 0))
(assert (>= x18 0))
(assert (>= x35 0))
(assert (>= x8 0))
(assert (>= x25 0))
(assert (>= x42 0))
(assert (>= x15 0))
(assert (>= x32 0))
(assert (>= x5 0))
(assert (>= x22 0))
(assert (>= x39 0))
(assert (>= x12 0))
(assert (>= x29 0))
(assert (>= x46 0))
(assert (>= x2 0))
(assert (>= x19 0))
(assert (>= x36 0))
(assert (>= x9 0))
(assert (>= x26 0))
(assert (>= x43 0))
(assert (>= x16 0))
(assert (>= x33 0))
(assert (let ((?v_1 (+ x4 (+ (+ (* x7 x4) (* x8 x5)) (* x9 x6)))) (?v_2 (+ x5 (+ (+ (* x10 x4) (* x11 x5)) (* x12 x6)))) (?v_3 (+ x6 (+ (+ (* x13 x4) (* x14 x5)) (* x15 x6))))) (let ((?v_0 (+ x0 (+ (+ (* x1 ?v_1) (* x2 ?v_2)) (* x3 ?v_3)))) (?v_5 (+ (+ (* x7 x7) (* x8 x10)) (* x9 x13))) (?v_6 (+ (+ (* x10 x7) (* x11 x10)) (* x12 x13))) (?v_7 (+ (+ (* x13 x7) (* x14 x10)) (* x15 x13))) (?v_8 (+ (+ (* x7 x8) (* x8 x11)) (* x9 x14))) (?v_9 (+ (+ (* x10 x8) (* x11 x11)) (* x12 x14))) (?v_10 (+ (+ (* x13 x8) (* x14 x11)) (* x15 x14))) (?v_11 (+ (+ (* x7 x9) (* x8 x12)) (* x9 x15))) (?v_12 (+ (+ (* x10 x9) (* x11 x12)) (* x12 x15))) (?v_13 (+ (+ (* x13 x9) (* x14 x12)) (* x15 x15))) (?v_4 (+ x16 (+ (+ (* x17 ?v_1) (* x18 ?v_2)) (* x19 ?v_3))))) (let ((?v_15 (+ (+ (* x17 ?v_5) (* x18 ?v_6)) (* x19 ?v_7))) (?v_16 (+ (+ (* x17 ?v_8) (* x18 ?v_9)) (* x19 ?v_10))) (?v_17 (+ (+ (* x17 ?v_11) (* x18 ?v_12)) (* x19 ?v_13))) (?v_19 (+ x4 (+ (+ (* x7 x20) (* x8 x21)) (* x9 x22)))) (?v_21 (+ x5 (+ (+ (* x10 x20) (* x11 x21)) (* x12 x22)))) (?v_22 (+ x6 (+ (+ (* x13 x20) (* x14 x21)) (* x15 x22))))) (let ((?v_14 (+ x16 (+ (+ (* x17 ?v_19) (* x18 ?v_21)) (* x19 ?v_22)))) (?v_23 (+ (+ (* x7 x23) (* x8 x26)) (* x9 x29))) (?v_26 (+ (+ (* x10 x23) (* x11 x26)) (* x12 x29))) (?v_29 (+ (+ (* x13 x23) (* x14 x26)) (* x15 x29))) (?v_24 (+ (+ (* x7 x24) (* x8 x27)) (* x9 x30))) (?v_27 (+ (+ (* x10 x24) (* x11 x27)) (* x12 x30))) (?v_30 (+ (+ (* x13 x24) (* x14 x27)) (* x15 x30))) (?v_25 (+ (+ (* x7 x25) (* x8 x28)) (* x9 x31))) (?v_28 (+ (+ (* x10 x25) (* x11 x28)) (* x12 x31))) (?v_31 (+ (+ (* x13 x25) (* x14 x28)) (* x15 x31)))) (let ((?v_50 (and (and (and (and (> ?v_0 x0) (>= ?v_0 x0)) (and (and (>= (+ (+ (* x1 ?v_5) (* x2 ?v_6)) (* x3 ?v_7)) x1) (>= (+ (+ (* x1 ?v_8) (* x2 ?v_9)) (* x3 ?v_10)) x2)) (>= (+ (+ (* x1 ?v_11) (* x2 ?v_12)) (* x3 ?v_13)) x3))) (and (and (> ?v_4 x0) (>= ?v_4 x0)) (and (and (>= ?v_15 x1) (>= ?v_16 x2)) (>= ?v_17 x3)))) (and (and (> ?v_4 ?v_14) (>= ?v_4 ?v_14)) (and (and (>= ?v_15 (+ (+ (* x17 ?v_23) (* x18 ?v_26)) (* x19 ?v_29))) (>= ?v_16 (+ (+ (* x17 ?v_24) (* x18 ?v_27)) (* x19 ?v_30)))) (>= ?v_17 (+ (+ (* x17 ?v_25) (* x18 ?v_28)) (* x19 ?v_31))))))) (?v_18 (+ x20 (+ (+ (* x23 x32) (* x24 x33)) (* x25 x34)))) (?v_20 (+ x20 (+ (+ (* x23 ?v_1) (* x24 ?v_2)) (* x25 ?v_3)))) (?v_33 (+ x4 (+ (+ (* x7 x32) (* x8 x33)) (* x9 x34)))) (?v_34 (+ x5 (+ (+ (* x10 x32) (* x11 x33)) (* x12 x34)))) (?v_35 (+ x6 (+ (+ (* x13 x32) (* x14 x33)) (* x15 x34))))) (let ((?v_32 (+ x35 (+ (+ (* x38 ?v_33) (* x39 ?v_34)) (* x40 ?v_35)))) (?v_38 (+ x35 (+ (+ (* x38 ?v_19) (* x39 ?v_21)) (* x40 ?v_22)))) (?v_39 (+ x36 (+ (+ (* x41 ?v_19) (* x42 ?v_21)) (* x43 ?v_22)))) (?v_40 (+ x37 (+ (+ (* x44 ?v_19) (* x45 ?v_21)) (* x46 ?v_22))))) (let ((?v_37 (+ x4 (+ (+ (* x7 ?v_38) (* x8 ?v_39)) (* x9 ?v_40)))) (?v_36 (+ x35 (+ (+ (* x38 ?v_1) (* x39 ?v_2)) (* x40 ?v_3)))) (?v_41 (+ (+ (* x38 ?v_23) (* x39 ?v_26)) (* x40 ?v_29))) (?v_42 (+ (+ (* x41 ?v_23) (* x42 ?v_26)) (* x43 ?v_29))) (?v_43 (+ (+ (* x44 ?v_23) (* x45 ?v_26)) (* x46 ?v_29))) (?v_44 (+ (+ (* x38 ?v_24) (* x39 ?v_27)) (* x40 ?v_30))) (?v_45 (+ (+ (* x41 ?v_24) (* x42 ?v_27)) (* x43 ?v_30))) (?v_46 (+ (+ (* x44 ?v_24) (* x45 ?v_27)) (* x46 ?v_30))) (?v_47 (+ (+ (* x38 ?v_25) (* x39 ?v_28)) (* x40 ?v_31))) (?v_48 (+ (+ (* x41 ?v_25) (* x42 ?v_28)) (* x43 ?v_31))) (?v_49 (+ (+ (* x44 ?v_25) (* x45 ?v_28)) (* x46 ?v_31)))) (and (and (and (and (and ?v_50 (and (> ?v_18 x32) (and (and (>= ?v_18 x32) (>= (+ x21 (+ (+ (* x26 x32) (* x27 x33)) (* x28 x34))) x33)) (>= (+ x22 (+ (+ (* x29 x32) (* x30 x33)) (* x31 x34))) x34)))) (and (and (> ?v_20 ?v_19) (and (and (>= ?v_20 ?v_19) (>= (+ x21 (+ (+ (* x26 ?v_1) (* x27 ?v_2)) (* x28 ?v_3))) ?v_21)) (>= (+ x22 (+ (+ (* x29 ?v_1) (* x30 ?v_2)) (* x31 ?v_3))) ?v_22))) (and (and (and (and (and (and (and (and (>= (+ (+ (* x23 ?v_5) (* x24 ?v_6)) (* x25 ?v_7)) ?v_23) (>= (+ (+ (* x23 ?v_8) (* x24 ?v_9)) (* x25 ?v_10)) ?v_24)) (>= (+ (+ (* x23 ?v_11) (* x24 ?v_12)) (* x25 ?v_13)) ?v_25)) (>= (+ (+ (* x26 ?v_5) (* x27 ?v_6)) (* x28 ?v_7)) ?v_26)) (>= (+ (+ (* x26 ?v_8) (* x27 ?v_9)) (* x28 ?v_10)) ?v_27)) (>= (+ (+ (* x26 ?v_11) (* x27 ?v_12)) (* x28 ?v_13)) ?v_28)) (>= (+ (+ (* x29 ?v_5) (* x30 ?v_6)) (* x31 ?v_7)) ?v_29)) (>= (+ (+ (* x29 ?v_8) (* x30 ?v_9)) (* x31 ?v_10)) ?v_30)) (>= (+ (+ (* x29 ?v_11) (* x30 ?v_12)) (* x31 ?v_13)) ?v_31)))) (and (> ?v_32 x32) (and (and (>= ?v_32 x32) (>= (+ x36 (+ (+ (* x41 ?v_33) (* x42 ?v_34)) (* x43 ?v_35))) x33)) (>= (+ x37 (+ (+ (* x44 ?v_33) (* x45 ?v_34)) (* x46 ?v_35))) x34)))) (and (and (> ?v_36 ?v_37) (and (and (>= ?v_36 ?v_37) (>= (+ x36 (+ (+ (* x41 ?v_1) (* x42 ?v_2)) (* x43 ?v_3))) (+ x5 (+ (+ (* x10 ?v_38) (* x11 ?v_39)) (* x12 ?v_40))))) (>= (+ x37 (+ (+ (* x44 ?v_1) (* x45 ?v_2)) (* x46 ?v_3))) (+ x6 (+ (+ (* x13 ?v_38) (* x14 ?v_39)) (* x15 ?v_40)))))) (and (and (and (and (and (and (and (and (>= (+ (+ (* x38 ?v_5) (* x39 ?v_6)) (* x40 ?v_7)) (+ (+ (* x7 ?v_41) (* x8 ?v_42)) (* x9 ?v_43))) (>= (+ (+ (* x38 ?v_8) (* x39 ?v_9)) (* x40 ?v_10)) (+ (+ (* x7 ?v_44) (* x8 ?v_45)) (* x9 ?v_46)))) (>= (+ (+ (* x38 ?v_11) (* x39 ?v_12)) (* x40 ?v_13)) (+ (+ (* x7 ?v_47) (* x8 ?v_48)) (* x9 ?v_49)))) (>= (+ (+ (* x41 ?v_5) (* x42 ?v_6)) (* x43 ?v_7)) (+ (+ (* x10 ?v_41) (* x11 ?v_42)) (* x12 ?v_43)))) (>= (+ (+ (* x41 ?v_8) (* x42 ?v_9)) (* x43 ?v_10)) (+ (+ (* x10 ?v_44) (* x11 ?v_45)) (* x12 ?v_46)))) (>= (+ (+ (* x41 ?v_11) (* x42 ?v_12)) (* x43 ?v_13)) (+ (+ (* x10 ?v_47) (* x11 ?v_48)) (* x12 ?v_49)))) (>= (+ (+ (* x44 ?v_5) (* x45 ?v_6)) (* x46 ?v_7)) (+ (+ (* x13 ?v_41) (* x14 ?v_42)) (* x15 ?v_43)))) (>= (+ (+ (* x44 ?v_8) (* x45 ?v_9)) (* x46 ?v_10)) (+ (+ (* x13 ?v_44) (* x14 ?v_45)) (* x15 ?v_46)))) (>= (+ (+ (* x44 ?v_11) (* x45 ?v_12)) (* x46 ?v_13)) (+ (+ (* x13 ?v_47) (* x14 ?v_48)) (* x15 ?v_49)))))) ?v_50)))))))))
(check-sat)
(exit)
